nG = 4;
nH = 3;

incidenceG = [|
false, true,  false, true  |
true,  false, true,  false |
false, true,  false, true  |
true,  false, true,  false |];

incidenceH = [|
false, true,  true  |
true,  false, true  |
true,  true,  false,|];


